p cnf 860
-15 -267
-16 -270
-17 -273
-18 -276
-19 -279
-20 -282
-21 -285
-22 -288
-23 -291
-24 -294
-25 -297
-26 -300
-27 -303
-28 -306
-29 307
-30 308
-31 309
-32 310
-33 311
-34 -16
-34 -17
16 17 34
-35 -18
-35 -19
18 19 35
-36 -20
-36 -21
20 21 36
-37 -22
-37 -23
22 23 37
-38 -24
-38 -25
24 25 38
-39 -26
-39 -27
26 27 39
-40 -28
-40 -29
28 29 40
-41 -30
-41 -31
30 31 41
-42 -32
-42 -33
32 33 42
-43 34
-43 35
-34 -35 43
-44 36
-44 37
-36 -37 44
-45 38
-45 39
-38 -39 45
-46 40
-46 41
-40 -41 46
-47 43
-47 44
-43 -44 47
-48 45
-48 46
-45 -46 48
-49 47
-49 48
-47 -48 49
-50 42
-50 49
-42 -49 50
-51 -15
-51 16
15 -16 51
-52 15
-52 -16
-15 16 52
-53 -51
-53 -52
51 52 53
-54 15
-54 16
-15 -16 54
-55 -15
-55 -53
15 53 55
-56 15
-56 53
-15 -53 56
-57 -55
-57 -56
55 56 57
-58 15
-58 -53
-15 53 58
-59 -54
-59 -58
54 58 59
-60 -16
-60 17
16 -17 60
-61 16
-61 -17
-16 17 61
-62 -60
-62 -61
60 61 62
-63 16
-63 17
-16 -17 63
-64 59
-64 -62
-59 62 64
-65 -59
-65 62
59 -62 65
-66 -64
-66 -65
64 65 66
-67 -59
-67 -62
59 62 67
-68 -63
-68 -67
63 67 68
-69 -17
-69 18
17 -18 69
-70 17
-70 -18
-17 18 70
-71 -69
-71 -70
69 70 71
-72 17
-72 18
-17 -18 72
-73 68
-73 -71
-68 71 73
-74 -68
-74 71
68 -71 74
-75 -73
-75 -74
73 74 75
-76 -68
-76 -71
68 71 76
-77 -72
-77 -76
72 76 77
-78 -18
-78 19
18 -19 78
-79 18
-79 -19
-18 19 79
-80 -78
-80 -79
78 79 80
-81 18
-81 19
-18 -19 81
-82 77
-82 -80
-77 80 82
-83 -77
-83 80
77 -80 83
-84 -82
-84 -83
82 83 84
-85 -77
-85 -80
77 80 85
-86 -81
-86 -85
81 85 86
-87 -19
-87 20
19 -20 87
-88 19
-88 -20
-19 20 88
-89 -87
-89 -88
87 88 89
-90 19
-90 20
-19 -20 90
-91 86
-91 -89
-86 89 91
-92 -86
-92 89
86 -89 92
-93 -91
-93 -92
91 92 93
-94 -86
-94 -89
86 89 94
-95 -90
-95 -94
90 94 95
-96 -20
-96 21
20 -21 96
-97 20
-97 -21
-20 21 97
-98 -96
-98 -97
96 97 98
-99 20
-99 21
-20 -21 99
-100 95
-100 -98
-95 98 100
-101 -95
-101 98
95 -98 101
-102 -100
-102 -101
100 101 102
-103 -95
-103 -98
95 98 103
-104 -99
-104 -103
99 103 104
-105 -21
-105 22
21 -22 105
-106 21
-106 -22
-21 22 106
-107 -105
-107 -106
105 106 107
-108 21
-108 22
-21 -22 108
-109 104
-109 -107
-104 107 109
-110 -104
-110 107
104 -107 110
-111 -109
-111 -110
109 110 111
-112 -104
-112 -107
104 107 112
-113 -108
-113 -112
108 112 113
-114 -22
-114 23
22 -23 114
-115 22
-115 -23
-22 23 115
-116 -114
-116 -115
114 115 116
-117 22
-117 23
-22 -23 117
-118 113
-118 -116
-113 116 118
-119 -113
-119 116
113 -116 119
-120 -118
-120 -119
118 119 120
-121 -113
-121 -116
113 116 121
-122 -117
-122 -121
117 121 122
-123 -23
-123 24
23 -24 123
-124 23
-124 -24
-23 24 124
-125 -123
-125 -124
123 124 125
-126 23
-126 24
-23 -24 126
-127 122
-127 -125
-122 125 127
-128 -122
-128 125
122 -125 128
-129 -127
-129 -128
127 128 129
-130 -122
-130 -125
122 125 130
-131 -126
-131 -130
126 130 131
-132 -24
-132 25
24 -25 132
-133 24
-133 -25
-24 25 133
-134 -132
-134 -133
132 133 134
-135 24
-135 25
-24 -25 135
-136 131
-136 -134
-131 134 136
-137 -131
-137 134
131 -134 137
-138 -136
-138 -137
136 137 138
-139 -131
-139 -134
131 134 139
-140 -135
-140 -139
135 139 140
-141 -25
-141 26
25 -26 141
-142 25
-142 -26
-25 26 142
-143 -141
-143 -142
141 142 143
-144 25
-144 26
-25 -26 144
-145 140
-145 -143
-140 143 145
-146 -140
-146 143
140 -143 146
-147 -145
-147 -146
145 146 147
-148 -140
-148 -143
140 143 148
-149 -144
-149 -148
144 148 149
-150 -26
-150 27
26 -27 150
-151 26
-151 -27
-26 27 151
-152 -150
-152 -151
150 151 152
-153 26
-153 27
-26 -27 153
-154 149
-154 -152
-149 152 154
-155 -149
-155 152
149 -152 155
-156 -154
-156 -155
154 155 156
-157 -149
-157 -152
149 152 157
-158 -153
-158 -157
153 157 158
-159 -27
-159 28
27 -28 159
-160 27
-160 -28
-27 28 160
-161 -159
-161 -160
159 160 161
-162 27
-162 28
-27 -28 162
-163 158
-163 -161
-158 161 163
-164 -158
-164 161
158 -161 164
-165 -163
-165 -164
163 164 165
-166 -158
-166 -161
158 161 166
-167 -162
-167 -166
162 166 167
-168 -28
-168 29
28 -29 168
-169 28
-169 -29
-28 29 169
-170 -168
-170 -169
168 169 170
-171 28
-171 29
-28 -29 171
-172 167
-172 -170
-167 170 172
-173 -167
-173 170
167 -170 173
-174 -172
-174 -173
172 173 174
-175 -167
-175 -170
167 170 175
-176 -171
-176 -175
171 175 176
-177 -29
-177 30
29 -30 177
-178 29
-178 -30
-29 30 178
-179 -177
-179 -178
177 178 179
-180 29
-180 30
-29 -30 180
-181 176
-181 -179
-176 179 181
-182 -176
-182 179
176 -179 182
-183 -181
-183 -182
181 182 183
-184 -176
-184 -179
176 179 184
-185 -180
-185 -184
180 184 185
-186 -30
-186 31
30 -31 186
-187 30
-187 -31
-30 31 187
-188 -186
-188 -187
186 187 188
-189 30
-189 31
-30 -31 189
-190 185
-190 -188
-185 188 190
-191 -185
-191 188
185 -188 191
-192 -190
-192 -191
190 191 192
-193 -185
-193 -188
185 188 193
-194 -189
-194 -193
189 193 194
-195 -31
-195 32
31 -32 195
-196 31
-196 -32
-31 32 196
-197 -195
-197 -196
195 196 197
-198 31
-198 32
-31 -32 198
-199 194
-199 -197
-194 197 199
-200 -194
-200 197
194 -197 200
-201 -199
-201 -200
199 200 201
-202 -194
-202 -197
194 197 202
-203 -198
-203 -202
198 202 203
-204 -32
-204 33
32 -33 204
-205 32
-205 -33
-32 33 205
-206 -204
-206 -205
204 205 206
-207 32
-207 33
-32 -33 207
-208 203
-208 -206
-203 206 208
-209 -203
-209 206
203 -206 209
-210 -208
-210 -209
208 209 210
-211 -203
-211 -206
203 206 211
-212 -207
-212 -211
207 211 212
-213 15
-213 -57
-15 57 213
-214 -15
-214 17
15 -17 214
-215 -213
-215 -214
213 214 215
-216 15
-216 -66
-15 66 216
-217 -15
-217 18
15 -18 217
-218 -216
-218 -217
216 217 218
-219 15
-219 -75
-15 75 219
-220 -15
-220 19
15 -19 220
-221 -219
-221 -220
219 220 221
-222 15
-222 -84
-15 84 222
-223 -15
-223 20
15 -20 223
-224 -222
-224 -223
222 223 224
-225 15
-225 -93
-15 93 225
-226 -15
-226 21
15 -21 226
-227 -225
-227 -226
225 226 227
-228 15
-228 -102
-15 102 228
-229 -15
-229 22
15 -22 229
-230 -228
-230 -229
228 229 230
-231 15
-231 -111
-15 111 231
-232 -15
-232 23
15 -23 232
-233 -231
-233 -232
231 232 233
-234 15
-234 -120
-15 120 234
-235 -15
-235 24
15 -24 235
-236 -234
-236 -235
234 235 236
-237 15
-237 -129
-15 129 237
-238 -15
-238 25
15 -25 238
-239 -237
-239 -238
237 238 239
-240 15
-240 -138
-15 138 240
-241 -15
-241 26
15 -26 241
-242 -240
-242 -241
240 241 242
-243 15
-243 -147
-15 147 243
-244 -15
-244 27
15 -27 244
-245 -243
-245 -244
243 244 245
-246 15
-246 -156
-15 156 246
-247 -15
-247 28
15 -28 247
-248 -246
-248 -247
246 247 248
-249 15
-249 -165
-15 165 249
-250 -15
-250 29
15 -29 250
-251 -249
-251 -250
249 250 251
-252 15
-252 -174
-15 174 252
-253 -15
-253 30
15 -30 253
-254 -252
-254 -253
252 253 254
-255 15
-255 -183
-15 183 255
-256 -15
-256 31
15 -31 256
-257 -255
-257 -256
255 256 257
-258 15
-258 -192
-15 192 258
-259 -15
-259 32
15 -32 259
-260 -258
-260 -259
258 259 260
-261 15
-261 -201
-15 201 261
-262 -15
-262 33
15 -33 262
-263 -261
-263 -262
261 262 263
-264 15
-264 -210
-15 210 264
-265 1
-265 50
-1 -50 265
-266 -50
-266 51
50 -51 266
-267 -265
-267 -266
265 266 267
-268 2
-268 50
-2 -50 268
-269 -50
-269 -215
50 215 269
-270 -268
-270 -269
268 269 270
-271 3
-271 50
-3 -50 271
-272 -50
-272 -218
50 218 272
-273 -271
-273 -272
271 272 273
-274 4
-274 50
-4 -50 274
-275 -50
-275 -221
50 221 275
-276 -274
-276 -275
274 275 276
-277 5
-277 50
-5 -50 277
-278 -50
-278 -224
50 224 278
-279 -277
-279 -278
277 278 279
-280 6
-280 50
-6 -50 280
-281 -50
-281 -227
50 227 281
-282 -280
-282 -281
280 281 282
-283 7
-283 50
-7 -50 283
-284 -50
-284 -230
50 230 284
-285 -283
-285 -284
283 284 285
-286 8
-286 50
-8 -50 286
-287 -50
-287 -233
50 233 287
-288 -286
-288 -287
286 287 288
-289 9
-289 50
-9 -50 289
-290 -50
-290 -236
50 236 290
-291 -289
-291 -290
289 290 291
-292 10
-292 50
-10 -50 292
-293 -50
-293 -239
50 239 293
-294 -292
-294 -293
292 293 294
-295 11
-295 50
-11 -50 295
-296 -50
-296 -242
50 242 296
-297 -295
-297 -296
295 296 297
-298 12
-298 50
-12 -50 298
-299 -50
-299 -245
50 245 299
-300 -298
-300 -299
298 299 300
-301 13
-301 50
-13 -50 301
-302 -50
-302 -248
50 248 302
-303 -301
-303 -302
301 302 303
-304 14
-304 50
-14 -50 304
-305 -50
-305 -251
50 251 305
-306 -304
-306 -305
304 305 306
-307 -50
-307 -254
50 254 307
-308 -50
-308 -257
50 257 308
-309 -50
-309 -260
50 260 309
-310 -50
-310 -263
50 263 310
-311 -50
-311 264
50 -264 311
-312 -33
-312 212
33 -212 312
-313 15
-313 -312
-15 312 313
313
